NAME          DCAP_2_4_3_500_SS145
ROWS
 N  OBJ
 L  CON1
 L  CON2
 L  CON3
 L  CON4
 L  CON5
 L  CON6
 L  CON7
 L  CON8
 L  CON9
 L  CON10
 L  CON11
 L  CON12
 E  CON13
 E  CON14
 E  CON15
 E  CON16
 E  CON17
 E  CON18
 E  CON19
 E  CON20
 E  CON21
 E  CON22
 E  CON23
 E  CON24
COLUMNS
    x[1,1]    OBJ       6.180167      CON1      1.000000    
    x[1,1]    CON7      -1.000000     CON8      -1.000000   
    x[1,1]    CON9      -1.000000   
    x[1,2]    OBJ       6.563535      CON2      1.000000    
    x[1,2]    CON8      -1.000000     CON9      -1.000000   
    x[1,3]    OBJ       7.443064      CON3      1.000000    
    x[1,3]    CON9      -1.000000   
    x[2,1]    OBJ       6.732585      CON4      1.000000    
    x[2,1]    CON10     -1.000000     CON11     -1.000000   
    x[2,1]    CON12     -1.000000   
    x[2,2]    OBJ       5.039546      CON5      1.000000    
    x[2,2]    CON11     -1.000000     CON12     -1.000000   
    x[2,3]    OBJ       6.054841      CON6      1.000000    
    x[2,3]    CON12     -1.000000   
    MARKER    'MARKER'                'INTORG'
    u[1,1]    OBJ       48.076654     CON1      -1.000000   
    u[1,2]    OBJ       20.066487     CON2      -1.000000   
    u[1,3]    OBJ       32.230043     CON3      -1.000000   
    u[2,1]    OBJ       49.996186     CON4      -1.000000   
    u[2,2]    OBJ       49.466655     CON5      -1.000000   
    u[2,3]    OBJ       27.484319     CON6      -1.000000   
    y[1,1,1]  OBJ       7.322283      CON7      0.857189    
    y[1,1,1]  CON13     1.000000    
    y[1,1,2]  OBJ       9.950387      CON8      0.792270    
    y[1,1,2]  CON14     1.000000    
    y[1,1,3]  OBJ       9.852192      CON9      1.106469    
    y[1,1,3]  CON15     1.000000    
    y[1,2,1]  OBJ       5.647443      CON7      1.324559    
    y[1,2,1]  CON16     1.000000    
    y[1,2,2]  OBJ       9.700598      CON8      1.082469    
    y[1,2,2]  CON17     1.000000    
    y[1,2,3]  OBJ       6.872989      CON9      1.276521    
    y[1,2,3]  CON18     1.000000    
    y[1,3,1]  OBJ       6.898011      CON7      1.290519    
    y[1,3,1]  CON19     1.000000    
    y[1,3,2]  OBJ       6.791142      CON8      0.661436    
    y[1,3,2]  CON20     1.000000    
    y[1,3,3]  OBJ       9.867746      CON9      1.357500    
    y[1,3,3]  CON21     1.000000    
    y[1,4,1]  OBJ       8.116680      CON7      0.889880    
    y[1,4,1]  CON22     1.000000    
    y[1,4,2]  OBJ       9.108410      CON8      0.802010    
    y[1,4,2]  CON23     1.000000    
    y[1,4,3]  OBJ       5.005424      CON9      1.145840    
    y[1,4,3]  CON24     1.000000    
    y[2,1,1]  OBJ       5.187262      CON10     0.857189    
    y[2,1,1]  CON13     1.000000    
    y[2,1,2]  OBJ       8.486290      CON11     0.792270    
    y[2,1,2]  CON14     1.000000    
    y[2,1,3]  OBJ       7.370682      CON12     1.106469    
    y[2,1,3]  CON15     1.000000    
    y[2,2,1]  OBJ       7.098684      CON10     1.324559    
    y[2,2,1]  CON16     1.000000    
    y[2,2,2]  OBJ       6.593487      CON11     1.082469    
    y[2,2,2]  CON17     1.000000    
    y[2,2,3]  OBJ       5.081170      CON12     1.276521    
    y[2,2,3]  CON18     1.000000    
    y[2,3,1]  OBJ       6.086765      CON10     1.290519    
    y[2,3,1]  CON19     1.000000    
    y[2,3,2]  OBJ       8.608153      CON11     0.661436    
    y[2,3,2]  CON20     1.000000    
    y[2,3,3]  OBJ       9.489294      CON12     1.357500    
    y[2,3,3]  CON21     1.000000    
    y[2,4,1]  OBJ       9.516888      CON10     0.889880    
    y[2,4,1]  CON22     1.000000    
    y[2,4,2]  OBJ       9.740131      CON11     0.802010    
    y[2,4,2]  CON23     1.000000    
    y[2,4,3]  OBJ       9.257354      CON12     1.145840    
    y[2,4,3]  CON24     1.000000    
    z[1,1]    OBJ       845.168009    CON13     1.000000    
    z[1,2]    OBJ       604.300922    CON14     1.000000    
    z[1,3]    OBJ       653.141891    CON15     1.000000    
    z[2,1]    OBJ       857.100444    CON16     1.000000    
    z[2,2]    OBJ       666.806906    CON17     1.000000    
    z[2,3]    OBJ       774.736850    CON18     1.000000    
    z[3,1]    OBJ       694.371528    CON19     1.000000    
    z[3,2]    OBJ       983.531955    CON20     1.000000    
    z[3,3]    OBJ       784.987611    CON21     1.000000    
    z[4,1]    OBJ       917.835338    CON22     1.000000    
    z[4,2]    OBJ       974.824722    CON23     1.000000    
    z[4,3]    OBJ       709.588482    CON24     1.000000    
    MARKER    'MARKER'                 'INTEND'
RHS
    RHS       CON1      -0.000000     CON2      -0.000000   
    RHS       CON3      -0.000000     CON4      -0.000000   
    RHS       CON5      -0.000000     CON6      -0.000000   
    RHS       CON7      -0.000000     CON8      -0.000000   
    RHS       CON9      -0.000000     CON10     -0.000000   
    RHS       CON11     -0.000000     CON12     -0.000000   
    RHS       CON13     1.000000      CON14     1.000000    
    RHS       CON15     1.000000      CON16     1.000000    
    RHS       CON17     1.000000      CON18     1.000000    
    RHS       CON19     1.000000      CON20     1.000000    
    RHS       CON21     1.000000      CON22     1.000000    
    RHS       CON23     1.000000      CON24     1.000000    
BOUNDS
 BV BOUND     u[1,1]  
 BV BOUND     u[1,2]  
 BV BOUND     u[1,3]  
 BV BOUND     u[2,1]  
 BV BOUND     u[2,2]  
 BV BOUND     u[2,3]  
 BV BOUND     y[1,1,1]
 BV BOUND     y[1,1,2]
 BV BOUND     y[1,1,3]
 BV BOUND     y[1,2,1]
 BV BOUND     y[1,2,2]
 BV BOUND     y[1,2,3]
 BV BOUND     y[1,3,1]
 BV BOUND     y[1,3,2]
 BV BOUND     y[1,3,3]
 BV BOUND     y[1,4,1]
 BV BOUND     y[1,4,2]
 BV BOUND     y[1,4,3]
 BV BOUND     y[2,1,1]
 BV BOUND     y[2,1,2]
 BV BOUND     y[2,1,3]
 BV BOUND     y[2,2,1]
 BV BOUND     y[2,2,2]
 BV BOUND     y[2,2,3]
 BV BOUND     y[2,3,1]
 BV BOUND     y[2,3,2]
 BV BOUND     y[2,3,3]
 BV BOUND     y[2,4,1]
 BV BOUND     y[2,4,2]
 BV BOUND     y[2,4,3]
 BV BOUND     z[1,1]  
 BV BOUND     z[1,2]  
 BV BOUND     z[1,3]  
 BV BOUND     z[2,1]  
 BV BOUND     z[2,2]  
 BV BOUND     z[2,3]  
 BV BOUND     z[3,1]  
 BV BOUND     z[3,2]  
 BV BOUND     z[3,3]  
 BV BOUND     z[4,1]  
 BV BOUND     z[4,2]  
 BV BOUND     z[4,3]  
ENDATA
